32	0

0	3	2	3	4
9	5	5	6	7	11	12
8	6	5	6	7	9	11	12
10	4	7	8	11	12
7	3	10	13	14
4	1	8
4	3	10	13	14
1	3	10	13	14
7	3	10	13	14
10	3	16	17	18
8	2	13	14
8	2	13	14
6	1	15
9	3	16	17	19
2	3	16	17	18
4	2	20	21
4	2	20	21
3	3	19	20	21
8	2	22	23
10	2	24	25
6	2	22	23
6	2	24	25
8	2	26	27
9	1	26
2	2	26	27
4	2	28	29
8	2	28	29
10	1	30
3	1	30
4	1	31
3	1	32
0	0
